4 5
72 73 55 94 
0 14 18 46 36 57 55 68 73 68 5 3 4 21 87 52 88 88 86 80 90 1
1 42 38 68 73 15 15 54 50 24 6 5 39 100 51 6 63 93 72 18 41 3
2 67 72 44 43 6 13 83 84 51 19 34 26 100 59 63 66 12 74 95 92 2
3 3 13 54 60 19 14 70 61 25 67 94 57 47 62 96 42 30 85 3 91 4
4 56 50 2 1 48 43 94 94 83 40 93 98 69 83 41 77 69 46 100 59 1
